(set-logic QF_FPABV)
(declare-fun b41 () (_ FP 8 24))
(declare-fun b89 () (_ FP 8 24))
(declare-fun b26 () (_ FP 8 24))
(declare-fun b74 () (_ FP 8 24))
(declare-fun b14 () (_ FP 8 24))
(declare-fun b32 () (_ FP 8 24))
(declare-fun b62 () (_ FP 8 24))
(declare-fun b47 () (_ FP 8 24))
(declare-fun b20 () (_ FP 8 24))
(declare-fun b131 () (_ FP 8 24))
(declare-fun b122 () (_ FP 8 24))
(declare-fun b53 () (_ FP 8 24))
(declare-fun b107 () (_ FP 8 24))
(declare-fun b11 () (_ FP 8 24))
(declare-fun b83 () (_ FP 8 24))
(declare-fun b146 () (_ FP 8 24))
(declare-fun b140 () (_ FP 8 24))
(declare-fun b119 () (_ FP 8 24))
(declare-fun b59 () (_ FP 8 24))
(declare-fun b116 () (_ FP 8 24))
(declare-fun b137 () (_ FP 8 24))
(declare-fun b65 () (_ FP 8 24))
(declare-fun b80 () (_ FP 8 24))
(declare-fun b23 () (_ FP 8 24))
(declare-fun b113 () (_ FP 8 24))
(declare-fun b155 () (_ FP 8 24))
(declare-fun b56 () (_ FP 8 24))
(declare-fun b104 () (_ FP 8 24))
(declare-fun b77 () (_ FP 8 24))
(declare-fun b125 () (_ FP 8 24))
(declare-fun b149 () (_ FP 8 24))
(declare-fun b101 () (_ FP 8 24))
(declare-fun b110 () (_ FP 8 24))
(declare-fun b134 () (_ FP 8 24))
(declare-fun b98 () (_ FP 8 24))
(declare-fun b128 () (_ FP 8 24))
(declare-fun b161 () (_ FP 8 24))
(declare-fun b35 () (_ FP 8 24))
(declare-fun b68 () (_ FP 8 24))
(declare-fun b95 () (_ FP 8 24))
(declare-fun b143 () (_ FP 8 24))
(declare-fun b29 () (_ FP 8 24))
(declare-fun b92 () (_ FP 8 24))
(declare-fun b71 () (_ FP 8 24))
(declare-fun b44 () (_ FP 8 24))
(declare-fun b50 () (_ FP 8 24))
(declare-fun b17 () (_ FP 8 24))
(declare-fun b270 () (_ FP 8 24))
(declare-fun b86 () (_ FP 8 24))
(declare-fun b158 () (_ FP 8 24))
(declare-fun b152 () (_ FP 8 24))
(declare-fun b38 () (_ FP 8 24))
(declare-fun b10 () (_ FP 8 24))
(define-fun .3 () RoundingMode roundNearestTiesToEven)
(define-fun .9 () (_ FP 8 24) b11)
(define-fun .10 () (_ FP 8 24) b161)
(define-fun .11 () Bool (< .9 .10))
(define-fun .12 () (_ FP 8 24) b10)
(define-fun .13 () (_ FP 8 24) (/ .3 .12 .9))
(define-fun .14 () (_ FP 8 24) b14)
(define-fun .15 () (_ FP 8 24) (/ .3 .13 .14))
(define-fun .16 () (_ FP 8 24) b17)
(define-fun .17 () (_ FP 8 24) (/ .3 .15 .16))
(define-fun .18 () (_ FP 8 24) b20)
(define-fun .19 () (_ FP 8 24) (/ .3 .17 .18))
(define-fun .20 () (_ FP 8 24) b23)
(define-fun .21 () (_ FP 8 24) (/ .3 .19 .20))
(define-fun .22 () (_ FP 8 24) b26)
(define-fun .23 () (_ FP 8 24) (/ .3 .21 .22))
(define-fun .24 () (_ FP 8 24) b29)
(define-fun .25 () (_ FP 8 24) (/ .3 .23 .24))
(define-fun .26 () (_ FP 8 24) b32)
(define-fun .27 () (_ FP 8 24) (/ .3 .25 .26))
(define-fun .28 () (_ FP 8 24) b35)
(define-fun .29 () (_ FP 8 24) (/ .3 .27 .28))
(define-fun .30 () (_ FP 8 24) b38)
(define-fun .31 () (_ FP 8 24) (/ .3 .29 .30))
(define-fun .32 () (_ FP 8 24) b41)
(define-fun .33 () (_ FP 8 24) (/ .3 .31 .32))
(define-fun .34 () (_ FP 8 24) b44)
(define-fun .35 () (_ FP 8 24) (/ .3 .33 .34))
(define-fun .36 () (_ FP 8 24) b47)
(define-fun .37 () (_ FP 8 24) (/ .3 .35 .36))
(define-fun .38 () (_ FP 8 24) b50)
(define-fun .39 () (_ FP 8 24) (/ .3 .37 .38))
(define-fun .40 () (_ FP 8 24) b53)
(define-fun .41 () (_ FP 8 24) (/ .3 .39 .40))
(define-fun .42 () (_ FP 8 24) b56)
(define-fun .43 () (_ FP 8 24) (/ .3 .41 .42))
(define-fun .44 () (_ FP 8 24) b59)
(define-fun .45 () (_ FP 8 24) (/ .3 .43 .44))
(define-fun .46 () (_ FP 8 24) b62)
(define-fun .47 () (_ FP 8 24) (/ .3 .45 .46))
(define-fun .48 () (_ FP 8 24) b65)
(define-fun .49 () (_ FP 8 24) (/ .3 .47 .48))
(define-fun .50 () (_ FP 8 24) b68)
(define-fun .51 () (_ FP 8 24) (/ .3 .49 .50))
(define-fun .52 () (_ FP 8 24) b71)
(define-fun .53 () (_ FP 8 24) (/ .3 .51 .52))
(define-fun .54 () (_ FP 8 24) b74)
(define-fun .55 () (_ FP 8 24) (/ .3 .53 .54))
(define-fun .56 () (_ FP 8 24) b77)
(define-fun .57 () (_ FP 8 24) (/ .3 .55 .56))
(define-fun .58 () (_ FP 8 24) b80)
(define-fun .59 () (_ FP 8 24) (/ .3 .57 .58))
(define-fun .60 () (_ FP 8 24) b83)
(define-fun .61 () (_ FP 8 24) (/ .3 .59 .60))
(define-fun .62 () (_ FP 8 24) b86)
(define-fun .63 () (_ FP 8 24) (/ .3 .61 .62))
(define-fun .64 () (_ FP 8 24) b89)
(define-fun .65 () (_ FP 8 24) (/ .3 .63 .64))
(define-fun .66 () (_ FP 8 24) b92)
(define-fun .67 () (_ FP 8 24) (/ .3 .65 .66))
(define-fun .68 () (_ FP 8 24) b95)
(define-fun .69 () (_ FP 8 24) (/ .3 .67 .68))
(define-fun .70 () (_ FP 8 24) b98)
(define-fun .71 () (_ FP 8 24) (/ .3 .69 .70))
(define-fun .72 () (_ FP 8 24) b101)
(define-fun .73 () (_ FP 8 24) (/ .3 .71 .72))
(define-fun .74 () (_ FP 8 24) b104)
(define-fun .75 () (_ FP 8 24) (/ .3 .73 .74))
(define-fun .76 () (_ FP 8 24) b107)
(define-fun .77 () (_ FP 8 24) (/ .3 .75 .76))
(define-fun .78 () (_ FP 8 24) b110)
(define-fun .79 () (_ FP 8 24) (/ .3 .77 .78))
(define-fun .80 () (_ FP 8 24) b113)
(define-fun .81 () (_ FP 8 24) (/ .3 .79 .80))
(define-fun .82 () (_ FP 8 24) b116)
(define-fun .83 () (_ FP 8 24) (/ .3 .81 .82))
(define-fun .84 () (_ FP 8 24) b119)
(define-fun .85 () (_ FP 8 24) (/ .3 .83 .84))
(define-fun .86 () (_ FP 8 24) b122)
(define-fun .87 () (_ FP 8 24) (/ .3 .85 .86))
(define-fun .88 () (_ FP 8 24) b125)
(define-fun .89 () (_ FP 8 24) (/ .3 .87 .88))
(define-fun .90 () (_ FP 8 24) b128)
(define-fun .91 () (_ FP 8 24) (/ .3 .89 .90))
(define-fun .92 () (_ FP 8 24) b131)
(define-fun .93 () (_ FP 8 24) (/ .3 .91 .92))
(define-fun .94 () (_ FP 8 24) b134)
(define-fun .95 () (_ FP 8 24) (/ .3 .93 .94))
(define-fun .96 () (_ FP 8 24) b137)
(define-fun .97 () (_ FP 8 24) (/ .3 .95 .96))
(define-fun .98 () (_ FP 8 24) b140)
(define-fun .99 () (_ FP 8 24) (/ .3 .97 .98))
(define-fun .100 () (_ FP 8 24) b143)
(define-fun .101 () (_ FP 8 24) (/ .3 .99 .100))
(define-fun .102 () (_ FP 8 24) b146)
(define-fun .103 () (_ FP 8 24) (/ .3 .101 .102))
(define-fun .104 () (_ FP 8 24) b149)
(define-fun .105 () (_ FP 8 24) (/ .3 .103 .104))
(define-fun .106 () (_ FP 8 24) b152)
(define-fun .107 () (_ FP 8 24) (/ .3 .105 .106))
(define-fun .108 () (_ FP 8 24) b155)
(define-fun .109 () (_ FP 8 24) (/ .3 .107 .108))
(define-fun .110 () (_ FP 8 24) b158)
(define-fun .111 () (_ FP 8 24) (/ .3 .109 .110))
(define-fun .112 () Bool (< .111 .10))
(define-fun .113 () Bool (and .11 .112))
(define-fun .114 () (_ FP 8 24) b270)
(define-fun .115 () Bool (< .114 .9))
(define-fun .116 () Bool (and .113 .115))
(define-fun .117 () Bool (< .14 .10))
(define-fun .118 () Bool (and .116 .117))
(define-fun .119 () Bool (< .114 .14))
(define-fun .120 () Bool (and .118 .119))
(define-fun .121 () Bool (< .16 .10))
(define-fun .122 () Bool (and .120 .121))
(define-fun .123 () Bool (< .114 .16))
(define-fun .124 () Bool (and .122 .123))
(define-fun .125 () Bool (< .18 .10))
(define-fun .126 () Bool (and .124 .125))
(define-fun .127 () Bool (< .114 .18))
(define-fun .128 () Bool (and .126 .127))
(define-fun .129 () Bool (< .20 .10))
(define-fun .130 () Bool (and .128 .129))
(define-fun .131 () Bool (< .114 .20))
(define-fun .132 () Bool (and .130 .131))
(define-fun .133 () Bool (< .22 .10))
(define-fun .134 () Bool (and .132 .133))
(define-fun .135 () Bool (< .114 .22))
(define-fun .136 () Bool (and .134 .135))
(define-fun .137 () Bool (< .24 .10))
(define-fun .138 () Bool (and .136 .137))
(define-fun .139 () Bool (< .114 .24))
(define-fun .140 () Bool (and .138 .139))
(define-fun .141 () Bool (< .26 .10))
(define-fun .142 () Bool (and .140 .141))
(define-fun .143 () Bool (< .114 .26))
(define-fun .144 () Bool (and .142 .143))
(define-fun .145 () Bool (< .28 .10))
(define-fun .146 () Bool (and .144 .145))
(define-fun .147 () Bool (< .114 .28))
(define-fun .148 () Bool (and .146 .147))
(define-fun .149 () Bool (< .30 .10))
(define-fun .150 () Bool (and .148 .149))
(define-fun .151 () Bool (< .114 .30))
(define-fun .152 () Bool (and .150 .151))
(define-fun .153 () Bool (< .32 .10))
(define-fun .154 () Bool (and .152 .153))
(define-fun .155 () Bool (< .114 .32))
(define-fun .156 () Bool (and .154 .155))
(define-fun .157 () Bool (< .34 .10))
(define-fun .158 () Bool (and .156 .157))
(define-fun .159 () Bool (< .114 .34))
(define-fun .160 () Bool (and .158 .159))
(define-fun .161 () Bool (< .36 .10))
(define-fun .162 () Bool (and .160 .161))
(define-fun .163 () Bool (< .114 .36))
(define-fun .164 () Bool (and .162 .163))
(define-fun .165 () Bool (< .38 .10))
(define-fun .166 () Bool (and .164 .165))
(define-fun .167 () Bool (< .114 .38))
(define-fun .168 () Bool (and .166 .167))
(define-fun .169 () Bool (< .40 .10))
(define-fun .170 () Bool (and .168 .169))
(define-fun .171 () Bool (< .114 .40))
(define-fun .172 () Bool (and .170 .171))
(define-fun .173 () Bool (< .42 .10))
(define-fun .174 () Bool (and .172 .173))
(define-fun .175 () Bool (< .114 .42))
(define-fun .176 () Bool (and .174 .175))
(define-fun .177 () Bool (< .44 .10))
(define-fun .178 () Bool (and .176 .177))
(define-fun .179 () Bool (< .114 .44))
(define-fun .180 () Bool (and .178 .179))
(define-fun .181 () Bool (< .46 .10))
(define-fun .182 () Bool (and .180 .181))
(define-fun .183 () Bool (< .114 .46))
(define-fun .184 () Bool (and .182 .183))
(define-fun .185 () Bool (< .48 .10))
(define-fun .186 () Bool (and .184 .185))
(define-fun .187 () Bool (< .114 .48))
(define-fun .188 () Bool (and .186 .187))
(define-fun .189 () Bool (< .50 .10))
(define-fun .190 () Bool (and .188 .189))
(define-fun .191 () Bool (< .114 .50))
(define-fun .192 () Bool (and .190 .191))
(define-fun .193 () Bool (< .52 .10))
(define-fun .194 () Bool (and .192 .193))
(define-fun .195 () Bool (< .114 .52))
(define-fun .196 () Bool (and .194 .195))
(define-fun .197 () Bool (< .54 .10))
(define-fun .198 () Bool (and .196 .197))
(define-fun .199 () Bool (< .114 .54))
(define-fun .200 () Bool (and .198 .199))
(define-fun .201 () Bool (< .56 .10))
(define-fun .202 () Bool (and .200 .201))
(define-fun .203 () Bool (< .114 .56))
(define-fun .204 () Bool (and .202 .203))
(define-fun .205 () Bool (< .58 .10))
(define-fun .206 () Bool (and .204 .205))
(define-fun .207 () Bool (< .114 .58))
(define-fun .208 () Bool (and .206 .207))
(define-fun .209 () Bool (< .60 .10))
(define-fun .210 () Bool (and .208 .209))
(define-fun .211 () Bool (< .114 .60))
(define-fun .212 () Bool (and .210 .211))
(define-fun .213 () Bool (< .62 .10))
(define-fun .214 () Bool (and .212 .213))
(define-fun .215 () Bool (< .114 .62))
(define-fun .216 () Bool (and .214 .215))
(define-fun .217 () Bool (< .64 .10))
(define-fun .218 () Bool (and .216 .217))
(define-fun .219 () Bool (< .114 .64))
(define-fun .220 () Bool (and .218 .219))
(define-fun .221 () Bool (< .66 .10))
(define-fun .222 () Bool (and .220 .221))
(define-fun .223 () Bool (< .114 .66))
(define-fun .224 () Bool (and .222 .223))
(define-fun .225 () Bool (< .68 .10))
(define-fun .226 () Bool (and .224 .225))
(define-fun .227 () Bool (< .114 .68))
(define-fun .228 () Bool (and .226 .227))
(define-fun .229 () Bool (< .70 .10))
(define-fun .230 () Bool (and .228 .229))
(define-fun .231 () Bool (< .114 .70))
(define-fun .232 () Bool (and .230 .231))
(define-fun .233 () Bool (< .72 .10))
(define-fun .234 () Bool (and .232 .233))
(define-fun .235 () Bool (< .114 .72))
(define-fun .236 () Bool (and .234 .235))
(define-fun .237 () Bool (< .74 .10))
(define-fun .238 () Bool (and .236 .237))
(define-fun .239 () Bool (< .114 .74))
(define-fun .240 () Bool (and .238 .239))
(define-fun .241 () Bool (< .76 .10))
(define-fun .242 () Bool (and .240 .241))
(define-fun .243 () Bool (< .114 .76))
(define-fun .244 () Bool (and .242 .243))
(define-fun .245 () Bool (< .78 .10))
(define-fun .246 () Bool (and .244 .245))
(define-fun .247 () Bool (< .114 .78))
(define-fun .248 () Bool (and .246 .247))
(define-fun .249 () Bool (< .80 .10))
(define-fun .250 () Bool (and .248 .249))
(define-fun .251 () Bool (< .114 .80))
(define-fun .252 () Bool (and .250 .251))
(define-fun .253 () Bool (< .82 .10))
(define-fun .254 () Bool (and .252 .253))
(define-fun .255 () Bool (< .114 .82))
(define-fun .256 () Bool (and .254 .255))
(define-fun .257 () Bool (< .84 .10))
(define-fun .258 () Bool (and .256 .257))
(define-fun .259 () Bool (< .114 .84))
(define-fun .260 () Bool (and .258 .259))
(define-fun .261 () Bool (< .86 .10))
(define-fun .262 () Bool (and .260 .261))
(define-fun .263 () Bool (< .114 .86))
(define-fun .264 () Bool (and .262 .263))
(define-fun .265 () Bool (< .88 .10))
(define-fun .266 () Bool (and .264 .265))
(define-fun .267 () Bool (< .114 .88))
(define-fun .268 () Bool (and .266 .267))
(define-fun .269 () Bool (< .90 .10))
(define-fun .270 () Bool (and .268 .269))
(define-fun .271 () Bool (< .114 .90))
(define-fun .272 () Bool (and .270 .271))
(define-fun .273 () Bool (< .92 .10))
(define-fun .274 () Bool (and .272 .273))
(define-fun .275 () Bool (< .114 .92))
(define-fun .276 () Bool (and .274 .275))
(define-fun .277 () Bool (< .94 .10))
(define-fun .278 () Bool (and .276 .277))
(define-fun .279 () Bool (< .114 .94))
(define-fun .280 () Bool (and .278 .279))
(define-fun .281 () Bool (< .96 .10))
(define-fun .282 () Bool (and .280 .281))
(define-fun .283 () Bool (< .114 .96))
(define-fun .284 () Bool (and .282 .283))
(define-fun .285 () Bool (< .98 .10))
(define-fun .286 () Bool (and .284 .285))
(define-fun .287 () Bool (< .114 .98))
(define-fun .288 () Bool (and .286 .287))
(define-fun .289 () Bool (< .100 .10))
(define-fun .290 () Bool (and .288 .289))
(define-fun .291 () Bool (< .114 .100))
(define-fun .292 () Bool (and .290 .291))
(define-fun .293 () Bool (< .102 .10))
(define-fun .294 () Bool (and .292 .293))
(define-fun .295 () Bool (< .114 .102))
(define-fun .296 () Bool (and .294 .295))
(define-fun .297 () Bool (< .104 .10))
(define-fun .298 () Bool (and .296 .297))
(define-fun .299 () Bool (< .114 .104))
(define-fun .300 () Bool (and .298 .299))
(define-fun .301 () Bool (< .106 .10))
(define-fun .302 () Bool (and .300 .301))
(define-fun .303 () Bool (< .114 .106))
(define-fun .304 () Bool (and .302 .303))
(define-fun .305 () Bool (< .108 .10))
(define-fun .306 () Bool (and .304 .305))
(define-fun .307 () Bool (< .114 .108))
(define-fun .308 () Bool (and .306 .307))
(define-fun .309 () Bool (< .110 .10))
(define-fun .310 () Bool (and .308 .309))
(define-fun .311 () Bool (< .114 .110))
(define-fun .312 () Bool (and .310 .311))
(assert .312)
(check-sat)
